# Objective value = 1.9458290027593957e+03
allocVar_j_0_k_0 5.1762421161848696e-08
allocVar_j_0_k_1 9.9999994823798222e-01
allocVar_j_0_k_2 0
allocVar_j_1_k_0 1
allocVar_j_1_k_1 0
allocVar_j_1_k_2 0
allocVar_j_2_k_0 9.9999995156952071e-01
allocVar_j_2_k_1 4.5097146004498331e-08
allocVar_j_2_k_2 0
allocVar_j_3_k_0 1
allocVar_j_3_k_1 0
allocVar_j_3_k_2 0
allocVar_j_4_k_0 0
allocVar_j_4_k_1 0
allocVar_j_4_k_2 1
cum_prob_j_0_k_0_s_99 8.0100824630687989e-05
cum_prob_j_0_k_0_s_98 0
cum_prob_j_0_k_0_s_91 1.3951354921802058e-04
cum_prob_j_0_k_0_s_90 0
cum_prob_j_0_k_0_s_93 1.9100823359883420e-05
cum_prob_j_0_k_0_s_92 1.3678140748750198e-04
cum_prob_j_0_k_0_s_95 1.4221375804760822e-04
cum_prob_j_0_k_0_s_94 1.8599880024062010e-04
cum_prob_j_0_k_0_s_97 1.4222436422134044e-04
cum_prob_j_0_k_0_s_96 0
cum_prob_j_0_k_1_s_99 6.5402041442486723e+02
cum_prob_j_0_k_1_s_98 2.7860274215815721e+03
cum_prob_j_0_k_1_s_91 1.1391232199936246e+03
cum_prob_j_0_k_1_s_90 2.2845569338614341e+03
cum_prob_j_0_k_1_s_93 1.5595755059057302e+02
cum_prob_j_0_k_1_s_92 1.1168153789058479e+03
cum_prob_j_0_k_1_s_95 1.1611703300689935e+03
cum_prob_j_0_k_1_s_94 1.5186736588139120e+03
cum_prob_j_0_k_1_s_97 1.1612569291042942e+03
cum_prob_j_0_k_1_s_96 1.6940725415879804e+03
cum_prob_j_0_k_2_s_99 0
cum_prob_j_0_k_2_s_98 0
cum_prob_j_0_k_2_s_91 0
cum_prob_j_0_k_2_s_90 0
cum_prob_j_0_k_2_s_93 0
cum_prob_j_0_k_2_s_92 0
cum_prob_j_0_k_2_s_95 0
cum_prob_j_0_k_2_s_94 0
cum_prob_j_0_k_2_s_97 0
cum_prob_j_0_k_2_s_96 0
cum_prob_j_1_k_0_s_99 6.5402049452569167e+02
cum_prob_j_1_k_0_s_98 2.7860274215815722e-04
cum_prob_j_1_k_0_s_91 1.1391233595071737e+03
cum_prob_j_1_k_0_s_90 2.2845569338614342e-04
cum_prob_j_1_k_0_s_93 1.5595756969139634e+02
cum_prob_j_1_k_0_s_92 1.1168155156872554e-04
cum_prob_j_1_k_0_s_95 1.1611704722827515e-04
cum_prob_j_1_k_0_s_94 1.5186738448127120e-04
cum_prob_j_1_k_0_s_97 1.1612570713286580e+03
cum_prob_j_1_k_0_s_96 1.6940725415879801e+03
cum_prob_j_1_k_1_s_99 0
cum_prob_j_1_k_1_s_98 0
cum_prob_j_1_k_1_s_91 0
cum_prob_j_1_k_1_s_90 0
cum_prob_j_1_k_1_s_93 0
cum_prob_j_1_k_1_s_92 0
cum_prob_j_1_k_1_s_95 0
cum_prob_j_1_k_1_s_94 0
cum_prob_j_1_k_1_s_97 0
cum_prob_j_1_k_1_s_96 0
cum_prob_j_1_k_2_s_99 0
cum_prob_j_1_k_2_s_98 0
cum_prob_j_1_k_2_s_91 0
cum_prob_j_1_k_2_s_90 0
cum_prob_j_1_k_2_s_93 0
cum_prob_j_1_k_2_s_92 0
cum_prob_j_1_k_2_s_95 0
cum_prob_j_1_k_2_s_94 0
cum_prob_j_1_k_2_s_97 0
cum_prob_j_1_k_2_s_96 0
cum_prob_j_2_k_0_s_99 6.5402049452569167e+02
cum_prob_j_2_k_0_s_98 1.6085133356666953e-11
cum_prob_j_2_k_0_s_91 1.1391232199936245e-04
cum_prob_j_2_k_0_s_90 1.3189892754242945e-11
cum_prob_j_2_k_0_s_93 1.5595756969139634e+02
cum_prob_j_2_k_0_s_92 0
cum_prob_j_2_k_0_s_95 1.1611704722827514e-04
cum_prob_j_2_k_0_s_94 0
cum_prob_j_2_k_0_s_97 1.1612570713286580e+03
cum_prob_j_2_k_0_s_96 1.6940725415879801e+03
cum_prob_j_2_k_1_s_99 0
cum_prob_j_2_k_1_s_98 6.7983807551414210e-05
cum_prob_j_2_k_1_s_91 8.0548185196624341e-05
cum_prob_j_2_k_1_s_90 5.5747074751947870e-05
cum_prob_j_2_k_1_s_93 0
cum_prob_j_2_k_1_s_92 6.4479373861718754e-05
cum_prob_j_2_k_1_s_95 0
cum_prob_j_2_k_1_s_94 8.7680675295136407e-05
cum_prob_j_2_k_1_s_97 0
cum_prob_j_2_k_1_s_96 0
cum_prob_j_2_k_2_s_99 0
cum_prob_j_2_k_2_s_98 0
cum_prob_j_2_k_2_s_91 0
cum_prob_j_2_k_2_s_90 0
cum_prob_j_2_k_2_s_93 0
cum_prob_j_2_k_2_s_92 0
cum_prob_j_2_k_2_s_95 0
cum_prob_j_2_k_2_s_94 0
cum_prob_j_2_k_2_s_97 0
cum_prob_j_2_k_2_s_96 0
cum_prob_j_3_k_0_s_99 6.5402049452569167e+02
cum_prob_j_3_k_0_s_98 6.7983823636547585e-05
cum_prob_j_3_k_0_s_91 1.9446050719598681e-11
cum_prob_j_3_k_0_s_90 5.5747087941840625e-05
cum_prob_j_3_k_0_s_93 1.5595756969139634e+02
cum_prob_j_3_k_0_s_92 6.4479373861718754e-05
cum_prob_j_3_k_0_s_95 1.1611699143190245e-11
cum_prob_j_3_k_0_s_94 8.7680675295136407e-05
cum_prob_j_3_k_0_s_97 1.1612570713286580e-04
cum_prob_j_3_k_0_s_96 1.6940725415879801e+03
cum_prob_j_3_k_1_s_99 0
cum_prob_j_3_k_1_s_98 0
cum_prob_j_3_k_1_s_91 0
cum_prob_j_3_k_1_s_90 0
cum_prob_j_3_k_1_s_93 0
cum_prob_j_3_k_1_s_92 0
cum_prob_j_3_k_1_s_95 3.2214050792823779e-11
cum_prob_j_3_k_1_s_94 0
cum_prob_j_3_k_1_s_97 0
cum_prob_j_3_k_1_s_96 0
cum_prob_j_3_k_2_s_99 0
cum_prob_j_3_k_2_s_98 0
cum_prob_j_3_k_2_s_91 0
cum_prob_j_3_k_2_s_90 0
cum_prob_j_3_k_2_s_93 0
cum_prob_j_3_k_2_s_92 0
cum_prob_j_3_k_2_s_95 0
cum_prob_j_3_k_2_s_94 0
cum_prob_j_3_k_2_s_97 0
cum_prob_j_3_k_2_s_96 0
cum_prob_j_4_k_0_s_99 0
cum_prob_j_4_k_0_s_98 -9.2865914065321850e-12
cum_prob_j_4_k_0_s_91 0
cum_prob_j_4_k_0_s_90 0
cum_prob_j_4_k_0_s_93 0
cum_prob_j_4_k_0_s_92 0
cum_prob_j_4_k_0_s_95 0
cum_prob_j_4_k_0_s_94 0
cum_prob_j_4_k_0_s_97 0
cum_prob_j_4_k_0_s_96 0
cum_prob_j_4_k_1_s_99 0
cum_prob_j_4_k_1_s_98 0
cum_prob_j_4_k_1_s_91 0
cum_prob_j_4_k_1_s_90 0
cum_prob_j_4_k_1_s_93 0
cum_prob_j_4_k_1_s_92 0
cum_prob_j_4_k_1_s_95 0
cum_prob_j_4_k_1_s_94 0
cum_prob_j_4_k_1_s_97 0
cum_prob_j_4_k_1_s_96 0
cum_prob_j_4_k_2_s_99 5.3400549763688787e+02
cum_prob_j_4_k_2_s_98 1.3133462170433283e-04
cum_prob_j_4_k_2_s_91 3.5684167944992114e-12
cum_prob_j_4_k_2_s_90 1.0229781240650493e-05
cum_prob_j_4_k_2_s_93 2.8618747268573678e+01
cum_prob_j_4_k_2_s_92 1.1832185563264806e-05
cum_prob_j_4_k_2_s_95 8.0421749566650650e-12
cum_prob_j_4_k_2_s_94 7.1590971591913027e-05
cum_prob_j_4_k_2_s_97 9.4816242831799382e-05
cum_prob_j_4_k_2_s_96 1.3832044380501291e+03
